pr8_2
0 33 107 127 12 78 89 32 85 62 34 101 106 30 68 39 114 109 15 40 47 133 118 66 27 21 43 13 95 55 28 138 111 145 79 102 132 120 49 128 59 77 80 18 119 71 52 134 58 45 0 44 98 146 83 25 135 116 103 86 60 7 35 105 63 57 41 129 53 97 46 96 38 50 73 113 144 8 10 82 130 20 140 61 51 29 70 64 48 149 104 76 22 16 2 137 24 147 17 108 56 123 23 9 115 31 125 14 74 148 54 124 131 93 122 75 72 84 11 92 42 126 139 5 141 112 26 88 69 90 6 81 37 67 110 19 117 143 100 91 94 99 65 36 136 142 121 87 0